(declare-const a Real)
(declare-const b Real)
(declare-const c Real)
(assert (= (+ a b c) 3))
(assert (not (<= (+ (* (/ 1 2) (pow (+ (* a b) (* b c)) 2)) (* -1 (pow b 4)) (* (/ -1 2) (pow a 4)) (* (/ -1 2) (pow c 4))) 0)))
(check-sat)
(get-model)
(exit)